NAME : 31
COMMENT : tspgen
TYPE : TSP
DIMENSION : 31
EDGE_WEIGHT_TYPE : EUC_2D
NODE_COORD_SECTION
1 10056530617 9985088601
2 10127761808 10089227430
3 10073427817 10041485695
4 10093464701 10046060879
5 10014332301 9997233629
6 10029399815 10079324535
7 10066914287 10050001318
8 10091548196 10047856403
9 10067061174 10036137344
10 10096764028 10028025385
11 10007019665 9922845152
12 10022132765 10093829573
13 10062018618 9998620795
14 10050189649 10100000000
15 10100000000 10074625510
16 10095291389 9850603437
17 10082200475 10055546290
18 10069622713 9909468199
19 10023346481 10091403416
20 10029684307 10091040325
21 10015851940 10094193328
22 10056088696 10091040325
23 10099194975 10198899617
24 10030641334 10105792916
25 10109293559 9818492922
26 9960386979 10050552288
27 10092111364 10072733444
28 10100000000 10081029705
29 10050067892 10052019180
30 10025132159 9976049052
31 9964462026 10055217375
EOF